variable cutoff equal 14.0 # Angstroms [cite: 34]
boundary p p p             # Periodic boundary conditions [cite: 34]
units real                 # Kcal/mol and Angstroms [cite: 118]
units           real
atom_style      full
pair_style      lj/cut/tip4p/long 1 2 1 1 0.1546 12.0
bond_style      harmonic
angle_style     harmonic
kspace_style    pppm/tip4p 1.0e-4
